(declare-fun var0 () String)
(assert (str.in_re var0 (re.++ (re.union (re.* (str.to_re "0")) (re.* (str.to_re "11"))) (re.++ (re.* (re.+ (str.to_re "222"))) (re.++ (re.union (re.union (str.to_re "333") (str.to_re "4")) (re.* (str.to_re "55"))) (re.++ (re.union (re.+ (str.to_re "6")) (re.+ (str.to_re "77"))) (re.++ (re.+ (re.+ (str.to_re "88"))) (re.++ (re.* (re.* (str.to_re "9"))) (re.++ (re.union (re.* (str.to_re "aaa")) (re.union (str.to_re "bb") (str.to_re "ccc"))) (re.++ (re.union (re.union (str.to_re "ddd") (str.to_re "e")) (re.* (str.to_re "ff"))) (re.++ (re.* (re.* (str.to_re "g"))) (re.* (re.* (str.to_re "hh"))))))))))))))
(assert (str.in_re var0 (re.++ (re.* (re.union (str.to_re "000") (str.to_re "1"))) (re.++ (re.+ (re.* (str.to_re "222"))) (re.++ (re.union (re.union (str.to_re "333") (str.to_re "4")) (re.+ (str.to_re "5"))) (re.++ (re.+ (re.* (str.to_re "666"))) (re.++ (re.+ (re.+ (str.to_re "777"))) (re.++ (re.union (re.+ (str.to_re "8")) (re.* (str.to_re "9"))) (re.++ (re.* (re.* (str.to_re "aaa"))) (re.++ (re.union (re.* (str.to_re "bb")) (re.union (str.to_re "c") (str.to_re "d"))) (re.++ (re.+ (re.* (str.to_re "eee"))) (re.+ (re.* (str.to_re "f"))))))))))))))
(assert (str.in_re var0 (re.++ (re.union (re.* (str.to_re "00")) (re.* (str.to_re "111"))) (re.++ (re.+ (re.union (str.to_re "222") (str.to_re "3"))) (re.++ (re.union (re.+ (str.to_re "44")) (re.+ (str.to_re "55"))) (re.++ (re.+ (re.union (str.to_re "666") (str.to_re "7"))) (re.++ (re.+ (re.* (str.to_re "888"))) (re.++ (re.union (re.* (str.to_re "999")) (re.* (str.to_re "a"))) (re.++ (re.* (re.* (str.to_re "bb"))) (re.++ (re.* (re.* (str.to_re "cc"))) (re.++ (re.+ (re.* (str.to_re "dd"))) (re.union (re.* (str.to_re "eee")) (re.* (str.to_re "ff"))))))))))))))
(assert (str.in_re var0 (re.++ (re.union (re.+ (str.to_re "000")) (re.* (str.to_re "1"))) (re.++ (re.* (re.union (str.to_re "2") (str.to_re "3"))) (re.++ (re.+ (re.+ (str.to_re "44"))) (re.++ (re.* (re.* (str.to_re "5"))) (re.++ (re.+ (re.union (str.to_re "666") (str.to_re "7"))) (re.++ (re.* (re.* (str.to_re "8"))) (re.++ (re.+ (re.union (str.to_re "999") (str.to_re "a"))) (re.++ (re.+ (re.* (str.to_re "b"))) (re.++ (re.+ (re.+ (str.to_re "ccc"))) (re.* (re.union (str.to_re "dd") (str.to_re "e"))))))))))))))
(assert (str.in_re var0 (re.++ (re.union (re.+ (str.to_re "0")) (re.+ (str.to_re "1"))) (re.++ (re.* (re.+ (str.to_re "2"))) (re.++ (re.* (re.union (str.to_re "3") (str.to_re "444"))) (re.++ (re.union (re.* (str.to_re "55")) (re.union (str.to_re "66") (str.to_re "77"))) (re.++ (re.+ (re.+ (str.to_re "88"))) (re.++ (re.union (re.+ (str.to_re "9")) (re.* (str.to_re "aaa"))) (re.++ (re.+ (re.+ (str.to_re "bbb"))) (re.++ (re.union (re.* (str.to_re "cc")) (re.+ (str.to_re "dd"))) (re.++ (re.* (re.+ (str.to_re "ee"))) (re.* (re.* (str.to_re "f"))))))))))))))
(assert (str.in_re var0 (re.++ (re.* (re.union (str.to_re "000") (str.to_re "11"))) (re.++ (re.+ (re.union (str.to_re "2") (str.to_re "3"))) (re.++ (re.* (re.union (str.to_re "4") (str.to_re "55"))) (re.++ (re.+ (re.* (str.to_re "66"))) (re.++ (re.union (re.+ (str.to_re "777")) (re.* (str.to_re "88"))) (re.++ (re.+ (re.* (str.to_re "999"))) (re.++ (re.* (re.+ (str.to_re "aaa"))) (re.++ (re.* (re.* (str.to_re "bb"))) (re.++ (re.union (re.+ (str.to_re "ccc")) (re.* (str.to_re "dd"))) (re.+ (re.union (str.to_re "eee") (str.to_re "fff"))))))))))))))
(assert (str.in_re var0 (re.++ (re.+ (re.union (str.to_re "00") (str.to_re "11"))) (re.++ (re.+ (re.union (str.to_re "22") (str.to_re "333"))) (re.++ (re.* (re.union (str.to_re "444") (str.to_re "55"))) (re.++ (re.* (re.+ (str.to_re "66"))) (re.++ (re.* (re.+ (str.to_re "77"))) (re.++ (re.* (re.* (str.to_re "8"))) (re.++ (re.union (re.+ (str.to_re "999")) (re.union (str.to_re "aa") (str.to_re "bb"))) (re.++ (re.* (re.* (str.to_re "ccc"))) (re.++ (re.+ (re.union (str.to_re "d") (str.to_re "eee"))) (re.+ (re.+ (str.to_re "fff"))))))))))))))
(assert (str.in_re var0 (re.++ (re.+ (re.union (str.to_re "0") (str.to_re "11"))) (re.++ (re.union (re.* (str.to_re "22")) (re.* (str.to_re "333"))) (re.++ (re.* (re.* (str.to_re "44"))) (re.++ (re.union (re.* (str.to_re "55")) (re.+ (str.to_re "6"))) (re.++ (re.+ (re.union (str.to_re "77") (str.to_re "8"))) (re.++ (re.* (re.union (str.to_re "9") (str.to_re "aa"))) (re.++ (re.+ (re.+ (str.to_re "bbb"))) (re.++ (re.* (re.* (str.to_re "c"))) (re.++ (re.union (re.union (str.to_re "ddd") (str.to_re "eee")) (re.++ (str.to_re "fff") (str.to_re "fff"))) (re.union (re.* (str.to_re "gg")) (re.* (str.to_re "hhh"))))))))))))))
(assert (str.in_re var0 (re.++ (re.* (re.* (str.to_re "0"))) (re.++ (re.union (re.+ (str.to_re "1")) (re.* (str.to_re "22"))) (re.++ (re.* (re.* (str.to_re "3"))) (re.++ (re.* (re.union (str.to_re "44") (str.to_re "5"))) (re.++ (re.+ (re.union (str.to_re "666") (str.to_re "77"))) (re.++ (re.union (re.union (str.to_re "888") (str.to_re "99")) (re.union (str.to_re "aa") (str.to_re "bb"))) (re.++ (re.+ (re.* (str.to_re "ccc"))) (re.++ (re.+ (re.* (str.to_re "ddd"))) (re.++ (re.union (re.+ (str.to_re "ee")) (re.+ (str.to_re "ff"))) (re.union (re.+ (str.to_re "ggg")) (re.+ (str.to_re "hhh"))))))))))))))
(assert (str.in_re var0 (re.++ (re.* (re.+ (str.to_re "000"))) (re.++ (re.* (re.union (str.to_re "11") (str.to_re "22"))) (re.++ (re.union (re.* (str.to_re "3")) (re.+ (str.to_re "444"))) (re.++ (re.* (re.* (str.to_re "55"))) (re.++ (re.union (re.+ (str.to_re "66")) (re.* (str.to_re "7"))) (re.++ (re.+ (re.+ (str.to_re "888"))) (re.++ (re.* (re.* (str.to_re "99"))) (re.++ (re.* (re.union (str.to_re "a") (str.to_re "bbb"))) (re.++ (re.* (re.union (str.to_re "ccc") (str.to_re "dd"))) (re.+ (re.* (str.to_re "e"))))))))))))))
(assert (str.in_re var0 (re.++ (re.union (re.union (str.to_re "0") (str.to_re "11")) (re.union (str.to_re "22") (str.to_re "333"))) (re.++ (re.+ (re.union (str.to_re "444") (str.to_re "555"))) (re.++ (re.+ (re.+ (str.to_re "6"))) (re.++ (re.+ (re.* (str.to_re "77"))) (re.++ (re.* (re.+ (str.to_re "888"))) (re.++ (re.union (re.* (str.to_re "9")) (re.* (str.to_re "a"))) (re.++ (re.* (re.union (str.to_re "bbb") (str.to_re "c"))) (re.++ (re.+ (re.union (str.to_re "d") (str.to_re "ee"))) (re.++ (re.* (re.union (str.to_re "f") (str.to_re "ggg"))) (re.+ (re.+ (str.to_re "hhh"))))))))))))))
(assert (str.in_re var0 (re.++ (re.union (re.* (str.to_re "00")) (re.* (str.to_re "111"))) (re.++ (re.union (re.* (str.to_re "22")) (re.+ (str.to_re "33"))) (re.++ (re.* (re.+ (str.to_re "444"))) (re.++ (re.union (re.* (str.to_re "555")) (re.+ (str.to_re "666"))) (re.++ (re.+ (re.* (str.to_re "77"))) (re.++ (re.* (re.* (str.to_re "8"))) (re.++ (re.+ (re.union (str.to_re "999") (str.to_re "aa"))) (re.++ (re.* (re.union (str.to_re "bb") (str.to_re "ccc"))) (re.++ (re.+ (re.+ (str.to_re "dd"))) (re.+ (re.+ (str.to_re "e"))))))))))))))
(assert (str.in_re var0 (re.++ (re.+ (re.union (str.to_re "00") (str.to_re "111"))) (re.++ (re.union (re.* (str.to_re "222")) (re.+ (str.to_re "3"))) (re.++ (re.+ (re.+ (str.to_re "4"))) (re.++ (re.+ (re.+ (str.to_re "55"))) (re.++ (re.union (re.* (str.to_re "666")) (re.+ (str.to_re "77"))) (re.++ (re.* (re.union (str.to_re "888") (str.to_re "9"))) (re.++ (re.* (re.* (str.to_re "aaa"))) (re.++ (re.union (re.* (str.to_re "bbb")) (re.* (str.to_re "cc"))) (re.++ (re.* (re.union (str.to_re "d") (str.to_re "ee"))) (re.+ (re.* (str.to_re "fff"))))))))))))))
(check-sat)
